100
128
23
38
22
33
20
3
39
9
4
6
22
25
9
23
2
1
4
11
18
9
3
10
26
30
11
56
20
39
32
39
21
18
23
19
19
16
24
40
53
38
24
31
35
59
21
23
6
27
14
41
20
43
25
24
12
11
11
43
26
11
11
46
20
15
46
26
27
25
16
35
46
18
32
31
23
22
39
52
26
44
58
41
50
64
64
38
42
48
50
35
6
64
64
37
37
14
64
60
62
64